20	5
0	4	2	1	3	4
1	2	5	11
2	1	17
3	2	13	15
4	2	10	15
5	1	18
6	1	13
7	3	19	11	20
8	1	18
9	0
10	1	16
11	1	8
12	1	11
13	1	10
14	1	12
15	2	5	7
16	0
17	2	15	9
18	1	21
19	1	21
20	1	21
21	0
0	0	0	0	0	0	0
1	6	1	5	1	0	2
2	10	5	0	0	2	0
3	10	0	1	0	0	0
4	3	4	5	5	2	0
5	4	5	0	0	4	0
6	9	2	3	1	1	4
7	3	5	3	5	0	3
8	8	2	2	1	2	3
9	10	0	4	4	0	1
10	6	2	3	2	3	4
11	8	3	0	0	4	4
12	3	1	0	4	0	0
13	4	1	2	3	4	4
14	7	5	5	1	1	3
15	4	2	5	2	4	5
16	8	0	2	2	0	3
17	10	3	5	4	4	0
18	2	2	5	5	2	2
19	8	1	0	5	4	3
20	2	0	1	2	4	5
21	0	0	0	0	0	0
5	5	5	5	5
